HUN,8,6,20
0,13,1,5,4,27,3,4,2,19,5,17
5,5,2,26,3,23,0,3,4,23,1,23
5,19,3,7,2,22,1,29,4,16,0,25
1,25,2,27,3,14,5,12,4,28,0,1
2,6,0,12,5,14,1,11,4,4,3,21
4,5,0,6,5,5,1,9,3,10,2,20
0,28,3,15,4,5,2,28,1,28,5,2
4,21,5,17,3,30,0,11,1,17,2,19
